
Welcome to IBM(R) ILOG(R) CPLEX(R) Interactive Optimizer 12.7.1.0
  with Simplex, Mixed Integer & Barrier Optimizers
5725-A06 5725-A29 5724-Y48 5724-Y49 5724-Y54 5724-Y55 5655-Y21
Copyright IBM Corp. 1988, 2017.  All Rights Reserved.

Type 'help' for a list of available commands.
Type 'help' followed by a command name for more
information on commands.

CPLEX> New value for default parallel thread count: 1
CPLEX> New value for time limit in seconds: 3600
CPLEX> Problem 'eil76_m33.lp' read.
Read time = 0.21 sec. (20.65 ticks)
CPLEX> CPXPARAM_TimeLimit                               3600
CPXPARAM_Threads                                 1
CPXPARAM_Read_APIEncoding                        "UTF-8"
Tried aggregator 1 time.
MIP Presolve modified 193050 coefficients.
Reduced MIP has 8274 rows, 188176 columns, and 1125279 nonzeros.
Reduced MIP has 188100 binaries, 75 generals, 0 SOSs, and 0 indicators.
Presolve time = 0.66 sec. (851.95 ticks)
Tried aggregator 1 time.
Reduced MIP has 8274 rows, 188176 columns, and 1125279 nonzeros.
Reduced MIP has 188100 binaries, 76 generals, 0 SOSs, and 0 indicators.
Presolve time = 0.73 sec. (593.62 ticks)
Probing time = 0.21 sec. (89.59 ticks)
Clique table members: 367585.
MIP emphasis: balance optimality and feasibility.
MIP search method: dynamic search.
Parallel mode: none, using 1 thread.
Root relaxation solution time = 35.88 sec. (60213.53 ticks)

        Nodes                                         Cuts/
   Node  Left     Objective  IInf  Best Integer    Best Bound    ItCnt     Gap

      0     0       44.7660   301                     44.7660    37022         
      0     0       45.5331   322                    Cuts: 38    74005         
      0     0       46.0000   457                    Cuts: 99   113535         
      0     0       46.0000   454                    Cuts: 69   134329         
      0     0       46.0000   604                    Cuts: 91   174121         
      0     0       46.0000   390                    Cuts: 34   194520         
      0     0       46.0000   471                   Cuts: 119   222840         
Heuristic still looking.
Heuristic still looking.
Heuristic still looking.
      0     2       46.0000   268                     46.0000   222840         
Elapsed time = 804.01 sec. (1245210.18 ticks, tree = 0.01 MB, solutions = 0)
      1     3       46.0000   297                     46.0000   223147         
      2     4       46.0000   323                     46.0000   223977         
      3     5       46.0000   351                     46.0000   233530         
      4     6       46.0000   288                     46.0000   234864         
      5     7       46.0000   402                     46.0000   247236         
      6     8       46.0000   306                     46.0000   247512         
      7     9       46.0000   279                     46.0000   250394         
      8    10       46.0000   303                     46.0000   251160         
      9    11       46.0000   311                     46.0000   269670         
     10    12       46.0000   312                     46.0000   276752         
Elapsed time = 907.24 sec. (1416548.55 ticks, tree = 1.45 MB, solutions = 0)
     11    13       46.0000   294                     46.0000   277531         
     12    14       46.0000   305                     46.0000   288014         
     13    15       46.0000   294                     46.0000   288089         
     14    16       46.0000   295                     46.0000   291662         
     15    17       46.0000   296                     46.0000   291684         
     16    18       46.0147   265                     46.0000   307293         
     17    19       46.0000   277                     46.0000   307393         
     18    20       46.0000   304                     46.0000   307879         
     19    21       46.0000   270                     46.0000   313768         
     20    22       46.0000   299                     46.0000   314407         
Elapsed time = 1003.15 sec. (1587446.39 ticks, tree = 8.73 MB, solutions = 0)
     21    23       46.0629   302                     46.0000   316548         
     22    24       46.0156   277                     46.0000   323375         
     23    25       46.0453   285                     46.0000   338874         
     24    26       46.0480   316                     46.0000   338948         
     25    27       48.1395   246                     46.0000   339288         
     27    29       58.5116   399                     46.0000   354298         
     29    31       62.6047   213                     46.0000   354640         
     31    33       46.3175   292                     46.0000   355284         
     33    35       63.0814   340                     46.0000   378727         
     35    37       64.1395   171                     46.0000   379162         
Elapsed time = 1127.53 sec. (1795650.94 ticks, tree = 11.41 MB, solutions = 0)
     39    41       64.0465   425                     46.0000   393691         
     44    44       52.0000   258                     46.0000   393965         
     47    47       52.0000   310                     46.0000   394323         
     50    50       52.0000   351                     46.0000   394644         
     52    52       52.0000   392                     46.0000   395049         
     53    53       52.0000   382                     46.0000   413182         
     55    55       52.0000   397                     46.0000   413551         
     58    58       52.0000   383                     46.0000   413891         
     60    60       52.0000   370                     46.0000   414157         
     61    61       52.0000   341                     46.0000   422857         
Elapsed time = 1195.67 sec. (1897126.05 ticks, tree = 15.43 MB, solutions = 0)
     62    62       52.0000   290                     46.0000   437351         
     64    63       55.3488   333                     46.0000   449177         
     67    64       52.0000   279                     46.0000   461009         
     68    65       52.0000   329                     46.0000   477757         
     69    66       52.0000   309                     46.0000   478921         
     70    67       52.0000   276                     46.0000   495849         
     71    68       52.0000   334                     46.0000   512790         
     72    69       52.0000   314                     46.0000   526969         
     73    70       52.0000   312                     46.0000   541270         
     74    71       52.0000   337                     46.0000   559404         
Elapsed time = 1368.20 sec. (2167393.26 ticks, tree = 16.96 MB, solutions = 0)
     76    73       52.0000   338                     46.0000   573163         
     77    74       52.0000   322                     46.0000   573772         
     78    75       52.0000   349                     46.0000   586486         
     79    76       52.0000   286                     46.0000   595363         
     81    76    infeasible                           46.0000   595710         
     82    77       52.0000   279                     46.0000   604822         
     83    78       52.0000   287                     46.0000   613868         
     84    79       52.0000   246                     46.0000   624860         
     85    80       52.0000   324                     46.0000   626102         
     86    81       52.0000   305                     46.0000   632957         
Elapsed time = 1448.24 sec. (2294953.42 ticks, tree = 18.84 MB, solutions = 0)
     87    82       52.0000   262                     46.0000   642760         
     90    85       52.0000   276                     46.0000   648536         
     93    88       52.0000   277                     46.0000   649029         
     97    92       52.0000   254                     46.0000   651047         
     98    93       52.0000   251                     46.0000   654318         
    110   103       75.1163   166                     46.0000   654709         
    136   123      129.2326    93                     46.0000   654942         
    156   141      127.0000   110                     46.0000   655187         
    164   147    infeasible                           46.0000   655259         
    188   168      151.0000    56                     46.0000   655609         
Elapsed time = 1471.37 sec. (2329029.81 ticks, tree = 34.18 MB, solutions = 0)
*   211   185      integral     0      169.0000       46.0000   655925   72.78%
    211   185      169.0000     0      169.0000       46.0000   655925   72.78%
    218   188       46.0449   326      169.0000       46.0000   658640   72.78%
    223   189       55.1512   264      169.0000       46.0000   658981   72.78%
    233   195       88.5000   212      169.0000       46.0000   659288   72.78%
    240   199      107.4767   230      169.0000       46.0000   659562   72.78%
    249   205      128.4186   229      169.0000       46.0000   659884   72.78%
    261   212      147.8953   223      169.0000       46.0000   660087   72.78%
    269   216       47.3953   363      169.0000       46.0000   675827   72.78%
    270   217       47.3953   332      169.0000       46.0000   700573   72.78%
    271   218       47.3953   355      169.0000       46.0000   728799   72.78%
Elapsed time = 1597.16 sec. (2522045.87 ticks, tree = 40.05 MB, solutions = 1)
    272   219       47.3953   364      169.0000       46.0000   729295   72.78%
    273   220       47.3953   366      169.0000       46.0000   749975   72.78%
    274   221       47.3953   308      169.0000       46.0000   750266   72.78%
    275   221       47.3953   434      169.0000       46.0000   777888   72.78%
    284   228       79.4419   257      169.0000       46.0000   778164   72.78%
    294   237       94.0465   284      169.0000       46.0000   778397   72.78%
    301   243      101.4535   273      169.0000       46.0000   778639   72.78%
    310   252      101.4535   295      169.0000       46.0000   778894   72.78%
    320   262      101.7791   325      169.0000       46.0000   779132   72.78%
    330   272      101.7791   310      169.0000       46.0000   779311   72.78%
Elapsed time = 1693.12 sec. (2667192.83 ticks, tree = 49.11 MB, solutions = 1)
    340   282      101.7791   317      169.0000       46.0000   779465   72.78%
    350   292      101.7791   317      169.0000       46.0000   779613   72.78%
    362   304      101.7791   313      169.0000       46.0000   779776   72.78%
    372   314      101.7791   313      169.0000       46.0000   779936   72.78%
    381   323      101.7791   356      169.0000       46.0000   780126   72.78%
    392   334      101.7791   324      169.0000       46.0000   780316   72.78%
    400   342      101.7791   340      169.0000       46.0000   780530   72.78%
    402   344       46.0764   299      169.0000       46.0000   794905   72.78%
    404   346       46.2537   410      169.0000       46.0000   795241   72.78%
    410   352       46.4499   466      169.0000       46.0000   796379   72.78%
Elapsed time = 1724.58 sec. (2714294.93 ticks, tree = 61.11 MB, solutions = 1)
    415   357       46.6077   481      169.0000       46.0000   797882   72.78%
    421   363       46.6835   460      169.0000       46.0000   799066   72.78%
    429   371       46.8483   475      169.0000       46.0000   800245   72.78%
    436   378       46.9103   527      169.0000       46.0000   801433   72.78%
    442   384       47.0574   543      169.0000       46.0000   802711   72.78%
    446   388       47.2519   493      169.0000       46.0000   804409   72.78%
    449   391       47.3515   508      169.0000       46.0000   805986   72.78%
    453   395       47.6178   490      169.0000       46.0000   807391   72.78%
    455   397       47.6801   492      169.0000       46.0000   808931   72.78%
    459   401       47.8215   542      169.0000       46.0000   810154   72.78%
Elapsed time = 1756.37 sec. (2765347.73 ticks, tree = 69.27 MB, solutions = 1)
    460   402       48.3394   433      169.0000       46.0000   811395   72.78%
    464   406       48.4522   547      169.0000       46.0000   812346   72.78%
    467   409       48.8009   541      169.0000       46.0000   813885   72.78%
    470   412       48.8548   448      169.0000       46.0000   815008   72.78%
    473   415       48.9084   535      169.0000       46.0000   816975   72.78%
    476   418       49.0206   436      169.0000       46.0000   818470   72.78%
    479   421       49.0959   416      169.0000       46.0000   820117   72.78%
    482   424       49.1193   511      169.0000       46.0000   821126   72.78%
    485   427       49.1626   534      169.0000       46.0000   822415   72.78%
    488   430       49.2592   557      169.0000       46.0000   823679   72.78%
Elapsed time = 1787.40 sec. (2815223.48 ticks, tree = 74.10 MB, solutions = 1)
    492   434       49.3945   471      169.0000       46.0000   824853   72.78%
    497   439       49.6111   546      169.0000       46.0000   826112   72.78%
    500   442       49.6271   495      169.0000       46.0000   827195   72.78%
    501   443       49.7242   500      169.0000       46.0000   828554   72.78%
    505   447       46.0000   289      169.0000       46.0000   849109   72.78%
    506   448       46.0358   280      169.0000       46.0000   859819   72.78%

Clique cuts applied:  6
Cover cuts applied:  1
Mixed integer rounding cuts applied:  21
Zero-half cuts applied:  28

Root node processing (before b&c):
  Real time             =  757.90 sec. (1211208.32 ticks)
Sequential b&c:
  Real time             = 2842.11 sec. (4283837.68 ticks)
                          ------------
Total (root+branch&cut) = 3600.01 sec. (5495046.00 ticks)

Solution pool: 1 solution saved.

MIP - Time limit exceeded, integer feasible:  Objective =  1.6900000000e+02
Current MIP best bound =  4.6000000000e+01 (gap = 123, 72.78%)
Solution time = 3600.01 sec.  Iterations = 1089409  Nodes = 507 (449)
Deterministic time = 5495046.54 ticks  (1526.40 ticks/sec)

CPLEX> Incumbent solution
Variable Name           Solution Value
y                           169.000000
x32                           1.000000
x5802                         1.000000
x11576                        1.000000
x17392                        1.000000
x23178                        1.000000
x28897                        1.000000
x34713                        1.000000
x40488                        1.000000
x46273                        1.000000
x52013                        1.000000
x57770                        1.000000
x63542                        1.000000
x69324                        1.000000
x75110                        1.000000
x80879                        1.000000
x86703                        1.000000
x92470                        1.000000
x98245                        1.000000
x104043                       1.000000
x109751                       1.000000
x115581                       1.000000
x121314                       1.000000
x127115                       1.000000
x132916                       1.000000
x138670                       1.000000
x144470                       1.000000
x150199                       1.000000
x156018                       1.000000
x161788                       1.000000
x167537                       1.000000
x173325                       1.000000
x179091                       1.000000
x184874                       1.000000
x2357                         1.000000
x7677                         1.000000
x13301                        1.000000
x22117                        1.000000
x28653                        1.000000
x34353                        1.000000
x36633                        1.000000
x44613                        1.000000
x49021                        1.000000
x54113                        1.000000
x60041                        1.000000
x65589                        1.000000
x73645                        1.000000
x76685                        1.000000
x81929                        1.000000
x89909                        1.000000
x93405                        1.000000
x101233                       1.000000
x109593                       1.000000
x113241                       1.000000
x120081                       1.000000
x125021                       1.000000
x130265                       1.000000
x136649                       1.000000
x140829                       1.000000
x149569                       1.000000
x155193                       1.000000
x158613                       1.000000
x163173                       1.000000
x169937                       1.000000
x173585                       1.000000
x180425                       1.000000
x187949                       1.000000
x69238                        1.000000
x90291                        1.000000
x151852                       1.000000
x176021                       1.000000
x152692                       1.000000
x86801                        1.000000
x160903                       1.000000
x30033                        1.000000
x96458                        1.000000
x30112                        1.000000
x181659                       1.000000
x166232                       1.000000
x68953                        1.000000
x90769                        1.000000
x38939                        1.000000
x65084                        1.000000
x142074                       1.000000
x58475                        1.000000
x150438                       1.000000
x161308                       1.000000
x176661                       1.000000
x51110                        1.000000
x63651                        1.000000
x88504                        1.000000
x102185                       1.000000
x89648                        1.000000
x113363                       1.000000
x114200                       1.000000
x91401                        1.000000
x122638                       1.000000
x137991                       1.000000
x150760                       1.000000
x87303                        1.000000
x70206                        1.000000
x110259                       1.000000
x29854                        1.000000
x154119                       1.000000
x149713                       1.000000
x156783                       1.000000
x66496                        1.000000
x33589                        1.000000
x63992                        1.000000
u2                            2.000000
u3                            2.000000
u4                            1.000000
u5                            2.000000
u8                            3.000000
u9                            3.000000
u11                           1.000000
u13                           2.000000
u14                           1.000000
u16                           1.000000
u19                           1.000000
u20                           1.000000
u21                          41.000000
u22                          42.000000
u25                           5.000000
u27                           1.000000
u28                          42.000000
u29                          42.000000
u30                           1.000000
u31                           1.000000
u33                          42.000000
u34                           2.000000
u36                           3.000000
u37                           1.000000
u38                           1.000000
u39                           3.000000
u40                           6.000000
u41                           1.000000
u42                          42.000000
u44                           7.000000
u47                          42.000000
u48                           2.000000
u49                           1.000000
u50                           1.000000
u51                           1.000000
u52                           4.000000
u55                           4.000000
u56                          42.000000
u58                          42.000000
u59                           1.000000
u62                           3.000000
u64                          42.000000
u67                           5.000000
u69                           1.000000
u71                           2.000000
u72                           4.000000
u73                          42.000000
u75                          42.000000
u76                           1.000000
All other variables in the range 1-188176 are 0.
CPLEX> 